<?xml version="1.0" encoding="UTF-8"?><osil xmlns="os.optimizationservices.org" xmlns:xsi="http://www.w3.org/2001/XMLSchema-instance" xsi:schemaLocation="os.optimizationservices.org http://www.optimizationservices.org/schemas/2.0/OSiL.xsd"><instanceHeader><name>ball_mk3_30</name></instanceHeader><instanceData><variables numberOfVariables="30"><var name="i2" type="I" lb="-1" ub="2"/><var name="i3" type="I" lb="-1" ub="2"/><var name="i4" type="I" lb="-1" ub="2"/><var name="i5" type="I" lb="-1" ub="2"/><var name="i6" type="I" lb="-1" ub="2"/><var name="i7" type="I" lb="-1" ub="2"/><var name="i8" type="I" lb="-1" ub="2"/><var name="i9" type="I" lb="-1" ub="2"/><var name="i10" type="I" lb="-1" ub="2"/><var name="i11" type="I" lb="-1" ub="2"/><var name="i12" type="I" lb="-1" ub="2"/><var name="i13" type="I" lb="-1" ub="2"/><var name="i14" type="I" lb="-1" ub="2"/><var name="i15" type="I" lb="-1" ub="2"/><var name="i16" type="I" lb="-1" ub="2"/><var name="i17" type="I" lb="-1" ub="2"/><var name="i18" type="I" lb="-1" ub="2"/><var name="i19" type="I" lb="-1" ub="2"/><var name="i20" type="I" lb="-1" ub="2"/><var name="i21" type="I" lb="-1" ub="2"/><var name="i22" type="I" lb="-1" ub="2"/><var name="i23" type="I" lb="-1" ub="2"/><var name="i24" type="I" lb="-1" ub="2"/><var name="i25" type="I" lb="-1" ub="2"/><var name="i26" type="I" lb="-1" ub="2"/><var name="i27" type="I" lb="-1" ub="2"/><var name="i28" type="I" lb="-1" ub="2"/><var name="i29" type="I" lb="-1" ub="2"/><var name="i30" type="I" lb="-1" ub="2"/><var name="i31" type="I" lb="-1" ub="2"/></variables><objectives><obj maxOrMin="min" name="defObj_objvar" numberOfObjCoef="30"><coef idx="0">-1</coef><coef idx="1">-1</coef><coef idx="2">-1</coef><coef idx="3">-1</coef><coef idx="4">-1</coef><coef idx="5">-1</coef><coef idx="6">-1</coef><coef idx="7">-1</coef><coef idx="8">-1</coef><coef idx="9">-1</coef><coef idx="10">-1</coef><coef idx="11">-1</coef><coef idx="12">-1</coef><coef idx="13">-1</coef><coef idx="14">-1</coef><coef idx="15">-1</coef><coef idx="16">-1</coef><coef idx="17">-1</coef><coef idx="18">-1</coef><coef idx="19">-1</coef><coef idx="20">-1</coef><coef idx="21">-1</coef><coef idx="22">-1</coef><coef idx="23">-1</coef><coef idx="24">-1</coef><coef idx="25">-1</coef><coef idx="26">-1</coef><coef idx="27">-1</coef><coef idx="28">-1</coef><coef idx="29">-1</coef></obj></objectives><constraints numberOfConstraints="1"><con name="e2" ub="-9.99999999999612e-5"/></constraints><linearConstraintCoefficients numberOfValues="30"><start><el>0</el><el>30</el></start><colIdx><el mult="30" incr="1">0</el></colIdx><value><el>-4.1161312091797e-2</el><el>-5.02208123501935e-2</el><el>-2.43048911732161e-2</el><el>-7.5711399569244e-3</el><el>-1.52163994975552e-2</el><el>-3.52372440378746e-2</el><el>-1.9974781798624e-2</el><el>-1.72067356549738e-2</el><el>-3.84040110374736e-2</el><el>-5.19656343340015e-2</el><el>-4.9224183717334e-2</el><el>-1.5401148979499e-2</el><el>-3.0733721879364e-2</el><el>-4.74635696658564e-2</el><el>-6.25392202854311e-3</el><el>-2.59924550955063e-2</el><el>-5.76726558598861e-2</el><el>-3.7617677558166e-2</el><el>-4.25137327561133e-2</el><el>-2.83867992035166e-2</el><el>-2.52301288903778e-2</el><el>-2.04948265573191e-2</el><el>-3.62882980369683e-2</el><el>-4.51913403894453e-2</el><el>-1.18746308986698e-2</el><el>-5.85014464120386e-2</el><el>-5.65703047972114e-2</el><el>-1.6482781963216e-2</el><el>-3.94468602581308e-2</el><el>-4.73965531202045e-2</el></value></linearConstraintCoefficients><quadraticCoefficients numberOfQuadraticTerms="30"><qTerm idx="0" idxOne="0" idxTwo="0" coef="4.1161312091797e-2"/><qTerm idx="0" idxOne="1" idxTwo="1" coef="5.02208123501935e-2"/><qTerm idx="0" idxOne="2" idxTwo="2" coef="2.43048911732161e-2"/><qTerm idx="0" idxOne="3" idxTwo="3" coef="7.5711399569244e-3"/><qTerm idx="0" idxOne="4" idxTwo="4" coef="1.52163994975552e-2"/><qTerm idx="0" idxOne="5" idxTwo="5" coef="3.52372440378746e-2"/><qTerm idx="0" idxOne="6" idxTwo="6" coef="1.9974781798624e-2"/><qTerm idx="0" idxOne="7" idxTwo="7" coef="1.72067356549738e-2"/><qTerm idx="0" idxOne="8" idxTwo="8" coef="3.84040110374736e-2"/><qTerm idx="0" idxOne="9" idxTwo="9" coef="5.19656343340015e-2"/><qTerm idx="0" idxOne="10" idxTwo="10" coef="4.9224183717334e-2"/><qTerm idx="0" idxOne="11" idxTwo="11" coef="1.5401148979499e-2"/><qTerm idx="0" idxOne="12" idxTwo="12" coef="3.0733721879364e-2"/><qTerm idx="0" idxOne="13" idxTwo="13" coef="4.74635696658564e-2"/><qTerm idx="0" idxOne="14" idxTwo="14" coef="6.25392202854311e-3"/><qTerm idx="0" idxOne="15" idxTwo="15" coef="2.59924550955063e-2"/><qTerm idx="0" idxOne="16" idxTwo="16" coef="5.76726558598861e-2"/><qTerm idx="0" idxOne="17" idxTwo="17" coef="3.7617677558166e-2"/><qTerm idx="0" idxOne="18" idxTwo="18" coef="4.25137327561133e-2"/><qTerm idx="0" idxOne="19" idxTwo="19" coef="2.83867992035166e-2"/><qTerm idx="0" idxOne="20" idxTwo="20" coef="2.52301288903778e-2"/><qTerm idx="0" idxOne="21" idxTwo="21" coef="2.04948265573191e-2"/><qTerm idx="0" idxOne="22" idxTwo="22" coef="3.62882980369683e-2"/><qTerm idx="0" idxOne="23" idxTwo="23" coef="4.51913403894453e-2"/><qTerm idx="0" idxOne="24" idxTwo="24" coef="1.18746308986698e-2"/><qTerm idx="0" idxOne="25" idxTwo="25" coef="5.85014464120386e-2"/><qTerm idx="0" idxOne="26" idxTwo="26" coef="5.65703047972114e-2"/><qTerm idx="0" idxOne="27" idxTwo="27" coef="1.6482781963216e-2"/><qTerm idx="0" idxOne="28" idxTwo="28" coef="3.94468602581308e-2"/><qTerm idx="0" idxOne="29" idxTwo="29" coef="4.73965531202045e-2"/></quadraticCoefficients></instanceData></osil>